;; sat

(declare-const x1 sl.list.loc)
(declare-const x2 sl.list.loc)
(declare-const x3 sl.list.loc)
(declare-const x4 sl.list.loc)
(declare-const x5 sl.list.loc)
(declare-const x6 sl.list.loc)
(declare-const x7 sl.list.loc)
(declare-const x8 sl.list.loc)
(declare-const x9 sl.list.loc)
(declare-const x10 sl.list.loc)
(declare-const x11 sl.list.loc)

(assert (sl.sepcon (sl.sepcon (sl.sepcon (sl.sepcon (sl.sepcon (sl.sepcon (sl.sepcon (sl.sepcon (sl.list.eq sl.list.null sl.list.null)
 (sl.list.neq x6 x9)
)
 (sl.list.neq x1 x2)
)
 (sl.list.neq x4 x6)
)
 (sl.list.neq x4 x5)
)
 (sl.list.neq x3 x5)
)
 (sl.list.neq x7 x11)
)
 (sl.list.neq x5 x9)
)
 (sl.sepcon (sl.sepcon (sl.sepcon (sl.sepcon (sl.sepcon (sl.sepcon (sl.sepcon (sl.sepcon (sl.sepcon (sl.sepcon (sl.sepcon (sl.sepcon (sl.list.seg x5 x7)
 (sl.list.seg x10 x9)
)
 (sl.list.seg x10 x4)
)
 (sl.list.seg x10 x6)
)
 (sl.list.seg x1 x10)
)
 (sl.list.seg x1 x6)
)
 (sl.list.seg x4 x9)
)
 (sl.list.seg x8 x7)
)
 (sl.list.seg x8 x3)
)
 (sl.list.seg x8 x4)
)
 (sl.list.seg x2 x3)
)
 (sl.list.seg x9 x3)
)
 (sl.list.seg x9 x8)
)
)
)

